NAME: random10
TYPE: TSP
COMMENT: random graph with 10 nodes
DIMENSION: 10
EDGE_WEIGHT_TYPE: EUC_2D
NODE_COORD_SECTION
1 50.595705 69.907672
2 89.090325 95.929143
3 54.721553 13.862444
4 14.929401 25.750825
5 84.071726 25.428218
6 81.428483 24.352497
7 92.926362 34.998377
8 19.659525 25.108386
9 61.604468 47.328885
10 35.165951 83.082863
EOF
